c 
c G(k,n,p) graph
c graph gen seed     : 193873
c number of vertices : 60
c max number of edges: 900
c number of classes  : 2
c edge density       : 0.200000
c edge probability   : 0.400000
c data structure     : sparse
c
c           Graph Stats
c number of vertices  : 60
c nonisolated vertices: 60
c number of edges     : 366
c edge density        : 0.206780
c max degree          : 19
c avg degree          : 12.20
c min degree          : 7
p col 60 366
e 1 60
e 1 58
e 1 51
e 1 48
e 1 39
e 1 32
e 1 26
e 1 16
e 1 10
e 1 7
e 1 6
e 2 59
e 2 58
e 2 53
e 2 51
e 2 43
e 2 39
e 2 36
e 2 32
e 2 8
e 2 3
e 3 56
e 3 55
e 3 42
e 3 40
e 3 35
e 3 30
e 3 27
e 3 24
e 3 13
e 3 9
e 3 4
e 4 51
e 4 47
e 4 46
e 4 43
e 4 39
e 4 28
e 4 23
e 4 21
e 4 17
e 5 55
e 5 52
e 5 50
e 5 45
e 5 44
e 5 38
e 5 30
e 5 27
e 5 24
e 5 15
e 5 14
e 5 11
e 6 57
e 6 56
e 6 52
e 6 45
e 6 30
e 6 27
e 6 24
e 6 22
e 6 19
e 6 15
e 6 12
e 6 11
e 6 9
e 7 55
e 7 54
e 7 52
e 7 44
e 7 40
e 7 35
e 7 22
e 7 14
e 8 57
e 8 56
e 8 54
e 8 44
e 8 40
e 8 38
e 8 35
e 8 27
e 8 24
e 8 18
e 9 60
e 9 59
e 9 53
e 9 48
e 9 26
e 9 17
e 9 10
e 10 56
e 10 55
e 10 54
e 10 50
e 10 44
e 10 38
e 10 22
e 10 12
e 10 11
e 11 60
e 11 53
e 11 51
e 11 48
e 11 47
e 11 41
e 11 37
e 11 34
e 11 32
e 11 31
e 11 28
e 11 26
e 11 25
e 12 60
e 12 51
e 12 46
e 12 43
e 12 39
e 12 37
e 12 34
e 12 32
e 12 31
e 12 26
e 12 25
e 12 16
e 13 59
e 13 58
e 13 53
e 13 48
e 13 37
e 13 36
e 13 34
e 13 31
e 13 25
e 13 23
e 14 59
e 14 58
e 14 47
e 14 36
e 14 33
e 14 31
e 14 28
e 14 25
e 14 16
e 15 60
e 15 59
e 15 51
e 15 48
e 15 37
e 15 36
e 15 33
e 15 26
e 15 17
e 16 56
e 16 55
e 16 52
e 16 49
e 16 30
e 16 29
e 16 27
e 16 22
e 16 18
e 17 55
e 17 54
e 17 50
e 17 45
e 17 40
e 17 22
e 18 58
e 18 53
e 18 51
e 18 47
e 18 41
e 18 34
e 18 28
e 18 26
e 18 25
e 18 23
e 19 59
e 19 51
e 19 41
e 19 39
e 19 36
e 19 34
e 19 31
e 19 28
e 19 25
e 19 21
e 20 60
e 20 51
e 20 47
e 20 43
e 20 34
e 20 33
e 20 26
e 21 50
e 21 44
e 21 42
e 21 38
e 21 27
e 22 60
e 22 46
e 22 43
e 22 41
e 22 36
e 22 34
e 22 33
e 22 32
e 22 31
e 22 23
e 23 57
e 23 56
e 23 54
e 23 49
e 23 45
e 23 42
e 23 40
e 23 38
e 23 30
e 23 29
e 23 27
e 23 24
e 24 60
e 24 59
e 24 53
e 24 48
e 24 46
e 24 43
e 24 41
e 24 39
e 24 37
e 24 32
e 24 26
e 25 56
e 25 45
e 25 44
e 25 42
e 25 27
e 26 56
e 26 52
e 26 50
e 26 40
e 26 38
e 27 53
e 27 51
e 27 48
e 27 46
e 27 41
e 27 39
e 27 36
e 27 34
e 27 33
e 27 31
e 27 28
e 28 57
e 28 54
e 28 52
e 28 50
e 28 49
e 28 45
e 28 44
e 29 60
e 29 51
e 29 48
e 29 47
e 29 46
e 29 43
e 29 39
e 29 36
e 29 34
e 29 33
e 29 31
e 30 53
e 30 51
e 30 48
e 30 46
e 30 43
e 30 41
e 30 36
e 30 34
e 30 32
e 31 56
e 31 38
e 32 57
e 32 52
e 32 50
e 32 35
e 33 57
e 33 56
e 33 54
e 33 50
e 33 45
e 33 40
e 33 35
e 34 55
e 34 54
e 34 49
e 34 44
e 34 42
e 34 40
e 35 59
e 35 58
e 35 51
e 35 47
e 35 39
e 36 57
e 36 55
e 36 52
e 36 45
e 36 38
e 37 54
e 37 50
e 37 45
e 37 42
e 37 38
e 38 58
e 38 53
e 38 47
e 38 46
e 38 43
e 39 54
e 39 49
e 40 60
e 40 59
e 40 51
e 40 47
e 40 46
e 41 57
e 41 55
e 41 52
e 41 49
e 41 45
e 41 44
e 42 51
e 42 48
e 43 57
e 43 56
e 43 50
e 44 60
e 44 48
e 44 47
e 45 58
e 45 51
e 45 46
e 46 57
e 46 54
e 46 52
e 46 49
e 47 54
e 47 49
e 48 57
e 48 50
e 49 60
e 49 59
e 49 51
e 50 58
e 51 52
e 52 59
e 53 57
e 53 56
e 53 54
e 54 59
e 54 58
e 55 59
e 56 60
e 57 58
